networks/zoo_148_3242/zoo_148_3242.txt
OKAY
Number of groups: 89
Flow 25: {24 26 0} {26 100 1} 
Flow 28: {34 29 0} {29 103 1} 
Flow 48: {32 49 0} {49 123 1} 
Flow 55: {34 56 0} {56 130 1} 
Flow 59: {59 60 0} {60 134 1} 
Flow 61: {41 62 0} {62 136 1} 
Flow 70: {73 72 0} {72 71 1} {71 145 2} 
Flow 97: {2 1 0} {1 42 1} {42 24 2} {24 25 3} {25 99 4} 
Flow 185: {4 42 0} {42 18 1} {18 17 2} {17 91 3} 
Flow 212: {41 44 0} {44 118 1} 
Flow 222: {57 58 0} {58 54 1} {54 128 2} 
Flow 244: {5 8 0} {8 7 1} {7 2 2} {2 76 3} 
Flow 269: {6 11 0} {11 85 1} 
Flow 303: {2 68 0} {68 38 1} {38 64 2} {64 138 3} 
Flow 348: {8 6 0} {6 51 1} {51 125 2} 
Flow 525: {10 30 0} {30 34 1} {34 61 2} {61 135 3} 
Flow 527: {66 65 0} {65 139 1} 
Flow 603: {12 57 0} {57 131 1} 
Flow 646: {15 27 0} {27 10 1} {10 40 2} {40 114 3} 
Flow 680: {14 13 0} {13 15 1} {15 16 2} {16 90 3} 
Flow 756: {13 14 0} {14 49 1} 
Flow 786: {16 15 3} {15 89 4} 
Flow 843: {17 26 0} {26 24 1} {24 23 2} {23 22 3} {22 20 4} 
Flow 864: {18 42 0} {42 1 1} {1 50 2} {50 124 3} 
Flow 1005: {6 8 0} {8 5 1} {5 79 2} 
Flow 1007: {20 19 0} {19 50 1} {50 1 2} {1 2 3} 
Flow 1007: {7 81 0} 
Flow 1018: {20 22 0} {22 23 1} {23 24 2} {24 98 3} 
Flow 1055: {21 50 0} {50 51 1} {51 6 2} {6 80 3} 
Flow 1117: {23 50 0} {50 19 1} {19 93 2} 
Flow 1212: {23 4 0} {4 67 1} 
Flow 1241: {25 24 0} {24 42 1} {42 116 2} 
Flow 1287: {26 17 0} {17 18 1} {18 43 2} {43 117 3} 
Flow 1386: {28 12 0} {12 86 1} 
Flow 1434: {29 34 0} 
Flow 1480: {31 30 0} {30 40 1} {40 38 2} {38 112 3} 
Flow 1527: {35 67 0} {67 69 1} {69 47 2} {47 121 3} 
Flow 1541: {30 10 0} {10 84 1} 
Flow 1559: {40 37 0} {37 36 1} {36 110 2} 
Flow 1584: {9 68 0} {68 69 1} {69 70 2} {70 144 3} 
Flow 1664: {37 40 0} {40 30 1} {30 31 2} {31 105 3} 
Flow 1670: {37 38 0} {38 39 1} {39 113 2} 
Flow 1720: {36 67 0} {67 43 1} 
Flow 1824: {39 38 0} {38 37 1} {37 111 2} 
Flow 1859: {40 10 0} {10 27 1} {27 67 2} {67 4 3} {4 23 4} 
Flow 1875: {38 33 0} {33 35 1} {35 48 2} {48 122 3} 
Flow 1989: {11 12 0} {12 55 1} {55 129 2} 
Flow 2000: {42 4 0} {4 3 1} {3 66 2} {66 140 3} 
Flow 2025: {43 18 0} {18 92 1} 
Flow 2095: {27 9 0} {9 16 1} {16 32 2} {32 106 3} 
Flow 2099: {44 41 0} {41 18 1} {18 67 2} {67 36 3} {36 37 4} 
Flow 2105: {44 46 0} {46 43 1} {43 45 2} {45 119 3} 
Flow 2176: {43 67 0} {67 141 1} 
Flow 2178: {45 47 0} {47 69 1} {69 143 2} 
Flow 2221: {70 71 0} {71 72 1} {72 146 2} 
Flow 2245: {22 96 0} 
Flow 2266: {46 44 0} 
Flow 2268: {47 45 0} {45 43 1} {43 46 2} {46 120 3} 
Flow 2284: {34 63 0} {63 137 1} 
Flow 2289: {69 68 0} {68 142 1} 
Flow 2301: {48 52 0} {52 68 1} {68 9 2} {9 83 3} 
Flow 2311: {33 38 0} {38 40 1} 
Flow 2329: {49 14 0} {14 88 1} 
Flow 2335: {49 32 0} {32 16 1} {16 9 2} {9 30 3} {30 104 4} 
Flow 2375: {19 20 0} {20 94 1} 
Flow 2436: {51 50 0} {50 23 1} {23 97 2} 
Flow 2495: {52 48 0} {48 35 1} {35 109 2} 
Flow 2501: {68 67 0} {67 18 1} {18 41 2} {41 115 3} 
Flow 2530: {53 7 0} {7 8 1} {8 82 2} 
Flow 2563: {54 58 0} {58 57 1} {57 2 2} {2 4 3} {4 78 4} 
Flow 2568: {55 12 0} {12 11 1} {11 4 2} {4 1 3} {1 75 4} 
Flow 2592: {56 34 0} 
Flow 2753: {60 58 0} {58 132 1} 
Flow 2760: {60 59 0} {59 1 1} {1 74 2} {74 73 3} {73 147 4} 
Flow 2777: {61 34 2} {34 30 3} {30 9 4} 
Flow 2796: {62 41 0} 
Flow 2814: {63 34 0} {34 108 1} 
Flow 2854: {64 38 0} {38 68 1} 
Flow 2897: {3 4 0} {4 2 1} {2 7 2} {7 53 3} {53 127 4} 
Flow 2907: {65 73 0} {73 74 1} {74 148 2} 
Flow 2940: {67 35 0} {35 33 1} {33 107 2} 
Flow 2959: {67 68 0} {68 52 1} {52 126 2} 
Flow 2966: {1 59 0} {59 133 1} 
Flow 2993: {9 27 0} {27 15 1} {15 13 2} {13 87 3} 
Flow 3001: {50 21 0} {21 95 1} 
Flow 3007: {68 2 0} {2 57 1} {57 12 2} {12 28 3} {28 102 4} 
Flow 3156: {72 73 0} {73 65 1} {65 66 2} {66 3 3} {3 77 4} 
Flow 3158: {74 1 0} {1 4 1} {4 11 2} {11 6 3} 
Flow 3169: {71 70 0} {70 69 1} {69 67 2} {67 27 3} {27 101 4} 
Time taken running everything: 0 seconds
