networks/zoo_148_3242/zoo_148_3242.sol
<?xml version = "1.0" encoding="UTF-8" standalone="yes"?>
<CPLEXSolution version="1.2">
 <header
   problemName="networks/zoo_148_3242/zoo_148_3242.lp"
   solutionName="incumbent"
   solutionIndex="-1"
   objectiveValue="89"
   solutionTypeValue="3"
   solutionTypeString="primal"
   solutionStatusValue="107"
   solutionStatusString="time limit exceeded"
   solutionMethodString="mip"
   primalFeasible="1"
   dualFeasible="0"
   MIPNodes="1211"
   MIPIterations="491835"
   writeLevel="3"/>
 <quality
   epInt="1.0000000000000001e-05"
   epRHS="9.9999999999999995e-07"
   maxIntInfeas="0"
   maxPrimalInfeas="0"
   maxX="4"
   maxSlack="10"/>
 <variables>
  <variable name="Y(25,26)" index="3577" value="1"/>
  <variable name="Y(28,29)" index="4024" value="1"/>
  <variable name="Y(48,49)" index="7004" value="1"/>
  <variable name="Y(55,56)" index="8047" value="1"/>
  <variable name="Y(59,60)" index="8643" value="1"/>
  <variable name="Y(61,62)" index="8941" value="1"/>
  <variable name="Y(70,71)" index="10282" value="1"/>
  <variable name="Y(97,25)" index="14232" value="1"/>
  <variable name="Y(185,17)" index="27248" value="1"/>
  <variable name="Y(212,44)" index="31271" value="1"/>
  <variable name="Y(222,54)" index="32761" value="1"/>
  <variable name="Y(244,2)" index="35965" value="1"/>
  <variable name="Y(269,11)" index="39674" value="1"/>
  <variable name="Y(303,64)" index="44759" value="1"/>
  <variable name="Y(348,51)" index="51406" value="1"/>
  <variable name="Y(525,61)" index="77612" value="1"/>
  <variable name="Y(527,65)" index="77912" value="1"/>
  <variable name="Y(603,57)" index="89152" value="1"/>
  <variable name="Y(646,40)" index="95499" value="1"/>
  <variable name="Y(680,16)" index="100507" value="1"/>
  <variable name="Y(756,14)" index="111753" value="1"/>
  <variable name="Y(786,15)" index="116194" value="1"/>
  <variable name="Y(843,22)" index="124637" value="1"/>
  <variable name="Y(864,50)" index="127773" value="1"/>
  <variable name="Y(1005,5)" index="148596" value="1"/>
  <variable name="Y(1007,1)" index="148888" value="1"/>
  <variable name="Y(1007,7)" index="148894" value="1"/>
  <variable name="Y(1018,24)" index="150539" value="1"/>
  <variable name="Y(1055,6)" index="155997" value="1"/>
  <variable name="Y(1117,19)" index="165186" value="1"/>
  <variable name="Y(1212,4)" index="179231" value="1"/>
  <variable name="Y(1241,42)" index="183561" value="1"/>
  <variable name="Y(1287,43)" index="190370" value="1"/>
  <variable name="Y(1386,12)" index="204991" value="1"/>
  <variable name="Y(1434,29)" index="212112" value="1"/>
  <variable name="Y(1480,38)" index="218929" value="1"/>
  <variable name="Y(1527,47)" index="225894" value="1"/>
  <variable name="Y(1541,10)" index="227929" value="1"/>
  <variable name="Y(1559,36)" index="230619" value="1"/>
  <variable name="Y(1584,70)" index="234353" value="1"/>
  <variable name="Y(1664,31)" index="246154" value="1"/>
  <variable name="Y(1670,39)" index="247050" value="1"/>
  <variable name="Y(1720,67)" index="254478" value="1"/>
  <variable name="Y(1824,37)" index="269840" value="1"/>
  <variable name="Y(1859,4)" index="274987" value="1"/>
  <variable name="Y(1875,48)" index="277399" value="1"/>
  <variable name="Y(1989,55)" index="294278" value="1"/>
  <variable name="Y(2000,66)" index="295917" value="1"/>
  <variable name="Y(2025,18)" index="299569" value="1"/>
  <variable name="Y(2095,32)" index="309943" value="1"/>
  <variable name="Y(2099,36)" index="310539" value="1"/>
  <variable name="Y(2105,45)" index="311436" value="1"/>
  <variable name="Y(2176,67)" index="321966" value="1"/>
  <variable name="Y(2178,69)" index="322264" value="1"/>
  <variable name="Y(2221,72)" index="328631" value="1"/>
  <variable name="Y(2245,22)" index="332133" value="1"/>
  <variable name="Y(2266,46)" index="335265" value="1"/>
  <variable name="Y(2268,46)" index="335561" value="1"/>
  <variable name="Y(2284,63)" index="337946" value="1"/>
  <variable name="Y(2289,68)" index="338691" value="1"/>
  <variable name="Y(2301,9)" index="340408" value="1"/>
  <variable name="Y(2311,38)" index="341917" value="1"/>
  <variable name="Y(2329,14)" index="344557" value="1"/>
  <variable name="Y(2335,30)" index="345461" value="1"/>
  <variable name="Y(2375,20)" index="351371" value="1"/>
  <variable name="Y(2436,23)" index="360402" value="1"/>
  <variable name="Y(2495,35)" index="369146" value="1"/>
  <variable name="Y(2501,41)" index="370040" value="1"/>
  <variable name="Y(2530,8)" index="374299" value="1"/>
  <variable name="Y(2563,4)" index="379179" value="1"/>
  <variable name="Y(2568,1)" index="379916" value="1"/>
  <variable name="Y(2592,56)" index="383523" value="1"/>
  <variable name="Y(2753,58)" index="407353" value="1"/>
  <variable name="Y(2760,73)" index="408404" value="1"/>
  <variable name="Y(2777,30)" index="410877" value="1"/>
  <variable name="Y(2796,62)" index="413721" value="1"/>
  <variable name="Y(2814,34)" index="416357" value="1"/>
  <variable name="Y(2854,38)" index="422281" value="1"/>
  <variable name="Y(2897,53)" index="428660" value="1"/>
  <variable name="Y(2907,74)" index="430161" value="1"/>
  <variable name="Y(2940,33)" index="435004" value="1"/>
  <variable name="Y(2959,52)" index="437835" value="1"/>
  <variable name="Y(2966,59)" index="438878" value="1"/>
  <variable name="Y(2993,13)" index="442828" value="1"/>
  <variable name="Y(3001,21)" index="444020" value="1"/>
  <variable name="Y(3007,28)" index="444915" value="1"/>
  <variable name="Y(3156,3)" index="466942" value="1"/>
  <variable name="Y(3158,11)" index="467246" value="1"/>
  <variable name="Y(3169,27)" index="468890" value="1"/>
  <variable name="X(1,2,1007)" index="480822" value="1"/>
  <variable name="X(1,4,3158)" index="486215" value="1"/>
  <variable name="X(1,42,97)" index="486396" value="1"/>
  <variable name="X(1,50,864)" index="490405" value="1"/>
  <variable name="X(1,59,2966)" index="495749" value="1"/>
  <variable name="X(1,74,2760)" index="498785" value="1"/>
  <variable name="X(1,75,2568)" index="501835" value="1"/>
  <variable name="X(2,1,97)" index="502606" value="1"/>
  <variable name="X(2,4,2563)" index="508314" value="1"/>
  <variable name="X(2,7,2897)" index="511890" value="1"/>
  <variable name="X(2,57,3007)" index="515242" value="1"/>
  <variable name="X(2,68,303)" index="515780" value="1"/>
  <variable name="X(2,76,244)" index="518963" value="1"/>
  <variable name="X(3,4,2897)" index="524858" value="1"/>
  <variable name="X(3,66,2000)" index="527203" value="1"/>
  <variable name="X(3,77,3156)" index="531601" value="1"/>
  <variable name="X(4,1,2568)" index="534255" value="1"/>
  <variable name="X(4,2,2897)" index="537826" value="1"/>
  <variable name="X(4,3,2000)" index="540171" value="1"/>
  <variable name="X(4,11,3158)" index="544571" value="1"/>
  <variable name="X(4,23,1859)" index="546514" value="1"/>
  <variable name="X(4,42,185)" index="548082" value="1"/>
  <variable name="X(4,67,1212)" index="552351" value="1"/>
  <variable name="X(4,78,2563)" index="556944" value="1"/>
  <variable name="X(5,8,244)" index="557867" value="1"/>
  <variable name="X(5,79,1005)" index="561870" value="1"/>
  <variable name="X(6,8,1005)" index="565112" value="1"/>
  <variable name="X(6,11,269)" index="567618" value="1"/>
  <variable name="X(6,51,348)" index="570939" value="1"/>
  <variable name="X(6,80,1055)" index="574888" value="1"/>
  <variable name="X(7,2,244)" index="577319" value="1"/>
  <variable name="X(7,8,2530)" index="582847" value="1"/>
  <variable name="X(7,53,2897)" index="586456" value="1"/>
  <variable name="X(7,81,1007)" index="587808" value="1"/>
  <variable name="X(8,5,1005)" index="591048" value="1"/>
  <variable name="X(8,6,348)" index="593633" value="1"/>
  <variable name="X(8,7,244)" index="596771" value="1"/>
  <variable name="X(8,82,2530)" index="602299" value="1"/>
  <variable name="X(9,16,2095)" index="605106" value="1"/>
  <variable name="X(9,27,2993)" index="609246" value="1"/>
  <variable name="X(9,30,2335)" index="611830" value="1"/>
  <variable name="X(9,68,1584)" index="614321" value="1"/>
  <variable name="X(9,83,2301)" index="618280" value="1"/>
  <variable name="X(10,27,1859)" index="621080" value="1"/>
  <variable name="X(10,30,525)" index="622988" value="1"/>
  <variable name="X(10,40,646)" index="626351" value="1"/>
  <variable name="X(10,84,1541)" index="630488" value="1"/>
  <variable name="X(11,4,2568)" index="634757" value="1"/>
  <variable name="X(11,6,3158)" index="638589" value="1"/>
  <variable name="X(11,12,1989)" index="640662" value="1"/>
  <variable name="X(11,85,269)" index="642184" value="1"/>
  <variable name="X(12,11,2568)" index="647725" value="1"/>
  <variable name="X(12,28,3007)" index="651406" value="1"/>
  <variable name="X(12,55,1989)" index="653630" value="1"/>
  <variable name="X(12,57,603)" index="655486" value="1"/>
  <variable name="X(12,86,1386)" index="659511" value="1"/>
  <variable name="X(13,14,756)" index="662123" value="1"/>
  <variable name="X(13,15,680)" index="665289" value="1"/>
  <variable name="X(13,87,2993)" index="670844" value="1"/>
  <variable name="X(14,13,680)" index="671773" value="1"/>
  <variable name="X(14,49,756)" index="675091" value="1"/>
  <variable name="X(14,88,2329)" index="679906" value="1"/>
  <variable name="X(15,13,2993)" index="683812" value="1"/>
  <variable name="X(15,16,680)" index="684741" value="1"/>
  <variable name="X(15,27,646)" index="687949" value="1"/>
  <variable name="X(15,89,786)" index="691331" value="1"/>
  <variable name="X(16,9,2335)" index="696122" value="1"/>
  <variable name="X(16,15,786)" index="697815" value="1"/>
  <variable name="X(16,32,2095)" index="702366" value="1"/>
  <variable name="X(16,90,680)" index="704193" value="1"/>
  <variable name="X(17,18,1287)" index="708042" value="1"/>
  <variable name="X(17,26,843)" index="710840" value="1"/>
  <variable name="X(17,91,185)" index="713424" value="1"/>
  <variable name="X(18,17,185)" index="716666" value="1"/>
  <variable name="X(18,41,2501)" index="722224" value="1"/>
  <variable name="X(18,42,864)" index="723829" value="1"/>
  <variable name="X(18,43,1287)" index="727494" value="1"/>
  <variable name="X(18,67,2099)" index="731548" value="1"/>
  <variable name="X(18,92,2025)" index="734716" value="1"/>
  <variable name="X(19,20,2375)" index="738308" value="1"/>
  <variable name="X(19,50,1007)" index="740182" value="1"/>
  <variable name="X(19,93,1117)" index="743534" value="1"/>
  <variable name="X(20,19,1007)" index="746666" value="1"/>
  <variable name="X(20,22,1018)" index="749919" value="1"/>
  <variable name="X(20,94,2375)" index="754518" value="1"/>
  <variable name="X(21,50,1055)" index="756440" value="1"/>
  <variable name="X(21,95,3001)" index="761628" value="1"/>
  <variable name="X(22,20,843)" index="762712" value="1"/>
  <variable name="X(22,23,1018)" index="766129" value="1"/>
  <variable name="X(22,96,2245)" index="770598" value="1"/>
  <variable name="X(23,4,1212)" index="772807" value="1"/>
  <variable name="X(23,22,843)" index="775680" value="1"/>
  <variable name="X(23,24,1018)" index="779097" value="1"/>
  <variable name="X(23,50,1117)" index="782438" value="1"/>
  <variable name="X(23,97,2436)" index="786999" value="1"/>
  <variable name="X(24,23,843)" index="788648" value="1"/>
  <variable name="X(24,25,97)" index="791144" value="1"/>
  <variable name="X(24,26,25)" index="794314" value="1"/>
  <variable name="X(24,42,1241)" index="798772" value="1"/>
  <variable name="X(24,98,1018)" index="801791" value="1"/>
  <variable name="X(25,24,1241)" index="805256" value="1"/>
  <variable name="X(25,99,97)" index="807354" value="1"/>
  <variable name="X(26,17,1287)" index="811786" value="1"/>
  <variable name="X(26,24,843)" index="814584" value="1"/>
  <variable name="X(26,100,25)" index="817008" value="1"/>
  <variable name="X(27,9,2095)" index="822320" value="1"/>
  <variable name="X(27,10,646)" index="824113" value="1"/>
  <variable name="X(27,15,2993)" index="829702" value="1"/>
  <variable name="X(27,67,1859)" index="831810" value="1"/>
  <variable name="X(27,101,3169)" index="836362" value="1"/>
  <variable name="X(28,12,1386)" index="837821" value="1"/>
  <variable name="X(28,102,3007)" index="842684" value="1"/>
  <variable name="X(29,34,1434)" index="844353" value="1"/>
  <variable name="X(29,103,28)" index="846189" value="1"/>
  <variable name="X(30,9,2777)" index="852180" value="1"/>
  <variable name="X(30,10,1541)" index="854186" value="1"/>
  <variable name="X(30,31,1664)" index="857551" value="1"/>
  <variable name="X(30,34,525)" index="859654" value="1"/>
  <variable name="X(30,40,1480)" index="863851" value="1"/>
  <variable name="X(30,104,2335)" index="867948" value="1"/>
  <variable name="X(31,30,1480)" index="870335" value="1"/>
  <variable name="X(31,105,1664)" index="873761" value="1"/>
  <variable name="X(32,16,2335)" index="877674" value="1"/>
  <variable name="X(32,49,48)" index="878629" value="1"/>
  <variable name="X(32,106,2095)" index="883918" value="1"/>
  <variable name="X(33,35,1875)" index="886940" value="1"/>
  <variable name="X(33,38,2311)" index="890618" value="1"/>
  <variable name="X(33,107,2940)" index="894489" value="1"/>
  <variable name="X(34,29,28)" index="894819" value="1"/>
  <variable name="X(34,30,2777)" index="900810" value="1"/>
  <variable name="X(34,56,55)" index="901330" value="1"/>
  <variable name="X(34,61,525)" index="905042" value="1"/>
  <variable name="X(34,63,2284)" index="910043" value="1"/>
  <variable name="X(34,108,2814)" index="913815" value="1"/>
  <variable name="X(35,33,2940)" index="917183" value="1"/>
  <variable name="X(35,48,1875)" index="919360" value="1"/>
  <variable name="X(35,67,1527)" index="922254" value="1"/>
  <variable name="X(35,109,2495)" index="926464" value="1"/>
  <variable name="X(36,37,2099)" index="929310" value="1"/>
  <variable name="X(36,67,1720)" index="932173" value="1"/>
  <variable name="X(36,110,1559)" index="935254" value="1"/>
  <variable name="X(37,36,1559)" index="938496" value="1"/>
  <variable name="X(37,38,1670)" index="941849" value="1"/>
  <variable name="X(37,40,1664)" index="945085" value="1"/>
  <variable name="X(37,111,1824)" index="948487" value="1"/>
  <variable name="X(38,33,1875)" index="951780" value="1"/>
  <variable name="X(38,37,1824)" index="954971" value="1"/>
  <variable name="X(38,39,1670)" index="958059" value="1"/>
  <variable name="X(38,40,2311)" index="961942" value="1"/>
  <variable name="X(38,64,303)" index="963176" value="1"/>
  <variable name="X(38,68,2854)" index="968969" value="1"/>
  <variable name="X(38,112,1480)" index="970837" value="1"/>
  <variable name="X(39,38,1824)" index="974423" value="1"/>
  <variable name="X(39,113,1670)" index="977511" value="1"/>
  <variable name="X(40,10,1859)" index="980942" value="1"/>
  <variable name="X(40,30,1664)" index="983989" value="1"/>
  <variable name="X(40,37,1559)" index="987126" value="1"/>
  <variable name="X(40,38,1480)" index="990289" value="1"/>
  <variable name="X(40,114,646)" index="992697" value="1"/>
  <variable name="X(41,18,2099)" index="997392" value="1"/>
  <variable name="X(41,44,212)" index="998747" value="1"/>
  <variable name="X(41,62,61)" index="1001838" value="1"/>
  <variable name="X(41,115,2501)" index="1007520" value="1"/>
  <variable name="X(42,1,864)" index="1009125" value="1"/>
  <variable name="X(42,4,2000)" index="1013503" value="1"/>
  <variable name="X(42,18,185)" index="1014930" value="1"/>
  <variable name="X(42,24,97)" index="1018084" value="1"/>
  <variable name="X(42,116,1241)" index="1022470" value="1"/>
  <variable name="X(43,18,2025)" index="1026496" value="1"/>
  <variable name="X(43,45,2105)" index="1029818" value="1"/>
  <variable name="X(43,46,2268)" index="1033223" value="1"/>
  <variable name="X(43,67,2176)" index="1036373" value="1"/>
  <variable name="X(43,117,1287)" index="1038726" value="1"/>
  <variable name="X(44,41,2099)" index="1042780" value="1"/>
  <variable name="X(44,46,2105)" index="1046028" value="1"/>
  <variable name="X(44,118,212)" index="1047377" value="1"/>
  <variable name="X(45,43,2268)" index="1052675" value="1"/>
  <variable name="X(45,47,2178)" index="1055827" value="1"/>
  <variable name="X(45,119,2105)" index="1058996" value="1"/>
  <variable name="X(46,43,2105)" index="1062238" value="1"/>
  <variable name="X(46,44,2266)" index="1065641" value="1"/>
  <variable name="X(46,120,2268)" index="1068885" value="1"/>
  <variable name="X(47,45,2268)" index="1072127" value="1"/>
  <variable name="X(47,69,2178)" index="1075279" value="1"/>
  <variable name="X(47,121,1527)" index="1077870" value="1"/>
  <variable name="X(48,35,2495)" index="1082080" value="1"/>
  <variable name="X(48,52,2301)" index="1085128" value="1"/>
  <variable name="X(48,122,1875)" index="1087944" value="1"/>
  <variable name="X(49,14,2329)" index="1091640" value="1"/>
  <variable name="X(49,32,2335)" index="1094888" value="1"/>
  <variable name="X(49,123,48)" index="1095843" value="1"/>
  <variable name="X(50,1,1007)" index="1100044" value="1"/>
  <variable name="X(50,19,1117)" index="1103396" value="1"/>
  <variable name="X(50,21,3001)" index="1108522" value="1"/>
  <variable name="X(50,23,2436)" index="1111199" value="1"/>
  <variable name="X(50,51,1055)" index="1113060" value="1"/>
  <variable name="X(50,124,864)" index="1116111" value="1"/>
  <variable name="X(51,6,1055)" index="1119544" value="1"/>
  <variable name="X(51,50,2436)" index="1124167" value="1"/>
  <variable name="X(51,125,348)" index="1125321" value="1"/>
  <variable name="X(52,48,2495)" index="1130710" value="1"/>
  <variable name="X(52,68,2301)" index="1133758" value="1"/>
  <variable name="X(52,126,2959)" index="1137658" value="1"/>
  <variable name="X(53,7,2530)" index="1140471" value="1"/>
  <variable name="X(53,127,2897)" index="1144080" value="1"/>
  <variable name="X(54,58,2563)" index="1146988" value="1"/>
  <variable name="X(54,128,222)" index="1147889" value="1"/>
  <variable name="X(55,12,2568)" index="1153477" value="1"/>
  <variable name="X(55,129,1989)" index="1156140" value="1"/>
  <variable name="X(56,34,2592)" index="1159985" value="1"/>
  <variable name="X(56,130,55)" index="1160690" value="1"/>
  <variable name="X(57,2,2563)" index="1166440" value="1"/>
  <variable name="X(57,12,3007)" index="1170126" value="1"/>
  <variable name="X(57,58,222)" index="1170583" value="1"/>
  <variable name="X(57,131,603)" index="1174206" value="1"/>
  <variable name="X(58,54,222)" index="1177067" value="1"/>
  <variable name="X(58,57,2563)" index="1182650" value="1"/>
  <variable name="X(58,132,2753)" index="1186082" value="1"/>
  <variable name="X(59,1,2760)" index="1189331" value="1"/>
  <variable name="X(59,60,59)" index="1189872" value="1"/>
  <variable name="X(59,133,2966)" index="1196021" value="1"/>
  <variable name="X(60,58,2753)" index="1199050" value="1"/>
  <variable name="X(60,59,2760)" index="1202299" value="1"/>
  <variable name="X(60,134,59)" index="1202840" value="1"/>
  <variable name="X(61,34,2777)" index="1208800" value="1"/>
  <variable name="X(61,135,525)" index="1209790" value="1"/>
  <variable name="X(62,41,2796)" index="1215303" value="1"/>
  <variable name="X(62,136,61)" index="1215810" value="1"/>
  <variable name="X(63,34,2814)" index="1221805" value="1"/>
  <variable name="X(63,137,2284)" index="1224517" value="1"/>
  <variable name="X(64,38,2854)" index="1228329" value="1"/>
  <variable name="X(64,138,303)" index="1229020" value="1"/>
  <variable name="X(65,66,3156)" index="1235115" value="1"/>
  <variable name="X(65,73,2907)" index="1238108" value="1"/>
  <variable name="X(65,139,527)" index="1238970" value="1"/>
  <variable name="X(66,3,3156)" index="1244841" value="1"/>
  <variable name="X(66,65,527)" index="1245454" value="1"/>
  <variable name="X(66,140,2000)" index="1250169" value="1"/>
  <variable name="X(67,4,1859)" index="1253270" value="1"/>
  <variable name="X(67,18,2501)" index="1257154" value="1"/>
  <variable name="X(67,27,3169)" index="1261064" value="1"/>
  <variable name="X(67,35,2940)" index="1264077" value="1"/>
  <variable name="X(67,36,2099)" index="1266478" value="1"/>
  <variable name="X(67,43,1720)" index="1269341" value="1"/>
  <variable name="X(67,68,2959)" index="1273822" value="1"/>
  <variable name="X(67,69,1527)" index="1275632" value="1"/>
  <variable name="X(67,141,2176)" index="1279523" value="1"/>
  <variable name="X(68,2,3007)" index="1283596" value="1"/>
  <variable name="X(68,9,2301)" index="1286132" value="1"/>
  <variable name="X(68,38,303)" index="1287376" value="1"/>
  <variable name="X(68,52,2959)" index="1293274" value="1"/>
  <variable name="X(68,67,2501)" index="1296058" value="1"/>
  <variable name="X(68,69,1584)" index="1298383" value="1"/>
  <variable name="X(68,142,2289)" index="1302330" value="1"/>
  <variable name="X(69,47,1527)" index="1304810" value="1"/>
  <variable name="X(69,67,3169)" index="1309694" value="1"/>
  <variable name="X(69,68,2289)" index="1312056" value="1"/>
  <variable name="X(69,70,1584)" index="1314593" value="1"/>
  <variable name="X(69,143,2178)" index="1318429" value="1"/>
  <variable name="X(70,69,3169)" index="1322662" value="1"/>
  <variable name="X(70,71,2221)" index="1324956" value="1"/>
  <variable name="X(70,144,1584)" index="1327561" value="1"/>
  <variable name="X(71,70,3169)" index="1332388" value="1"/>
  <variable name="X(71,72,2221)" index="1334682" value="1"/>
  <variable name="X(71,145,70)" index="1335773" value="1"/>
  <variable name="X(72,71,70)" index="1339015" value="1"/>
  <variable name="X(72,73,3156)" index="1345343" value="1"/>
  <variable name="X(72,146,2221)" index="1347650" value="1"/>
  <variable name="X(73,65,3156)" index="1351827" value="1"/>
  <variable name="X(73,72,70)" index="1351983" value="1"/>
  <variable name="X(73,74,2907)" index="1358062" value="1"/>
  <variable name="X(73,147,2760)" index="1361157" value="1"/>
  <variable name="X(74,1,3158)" index="1364797" value="1"/>
  <variable name="X(74,73,2760)" index="1367641" value="1"/>
  <variable name="X(74,148,2907)" index="1371030" value="1"/>
  <variable name="C(25,26)" index="1371462" value="1"/>
  <variable name="C(28,29)" index="1371478" value="1"/>
  <variable name="C(48,49)" index="1371575" value="1"/>
  <variable name="C(55,56)" index="1371605" value="1"/>
  <variable name="C(59,60)" index="1371617" value="1"/>
  <variable name="C(61,62)" index="1371629" value="1"/>
  <variable name="C(70,72)" index="1371668" value="1"/>
  <variable name="C(70,71)" index="1371669" value="2"/>
  <variable name="C(97,1)" index="1371769" value="1"/>
  <variable name="C(97,42)" index="1371770" value="2"/>
  <variable name="C(97,24)" index="1371771" value="3"/>
  <variable name="C(97,25)" index="1371772" value="4"/>
  <variable name="C(185,42)" index="1372133" value="1"/>
  <variable name="C(185,18)" index="1372134" value="2"/>
  <variable name="C(185,17)" index="1372135" value="3"/>
  <variable name="C(212,44)" index="1372245" value="1"/>
  <variable name="C(222,58)" index="1372287" value="1"/>
  <variable name="C(222,54)" index="1372288" value="2"/>
  <variable name="C(244,8)" index="1372380" value="1"/>
  <variable name="C(244,7)" index="1372381" value="2"/>
  <variable name="C(244,2)" index="1372382" value="3"/>
  <variable name="C(269,11)" index="1372515" value="1"/>
  <variable name="C(303,68)" index="1372708" value="1"/>
  <variable name="C(303,38)" index="1372709" value="2"/>
  <variable name="C(303,64)" index="1372710" value="3"/>
  <variable name="C(348,6)" index="1372929" value="1"/>
  <variable name="C(348,51)" index="1372930" value="2"/>
  <variable name="C(525,30)" index="1373791" value="1"/>
  <variable name="C(525,34)" index="1373792" value="2"/>
  <variable name="C(525,61)" index="1373793" value="3"/>
  <variable name="C(527,65)" index="1373804" value="1"/>
  <variable name="C(603,57)" index="1374175" value="1"/>
  <variable name="C(646,27)" index="1374417" value="1"/>
  <variable name="C(646,10)" index="1374418" value="2"/>
  <variable name="C(646,40)" index="1374419" value="3"/>
  <variable name="C(680,13)" index="1374641" value="1"/>
  <variable name="C(680,15)" index="1374642" value="2"/>
  <variable name="C(680,16)" index="1374643" value="3"/>
  <variable name="C(756,14)" index="1375095" value="1"/>
  <variable name="C(786,16)" index="1375259" value="3"/>
  <variable name="C(786,15)" index="1375260" value="4"/>
  <variable name="C(843,26)" index="1375559" value="1"/>
  <variable name="C(843,24)" index="1375560" value="2"/>
  <variable name="C(843,23)" index="1375561" value="3"/>
  <variable name="C(843,22)" index="1375562" value="4"/>
  <variable name="C(864,42)" index="1375665" value="1"/>
  <variable name="C(864,1)" index="1375666" value="2"/>
  <variable name="C(864,50)" index="1375667" value="3"/>
  <variable name="C(1005,8)" index="1376392" value="1"/>
  <variable name="C(1005,5)" index="1376393" value="2"/>
  <variable name="C(1007,19)" index="1376400" value="1"/>
  <variable name="C(1007,50)" index="1376401" value="2"/>
  <variable name="C(1007,1)" index="1376402" value="3"/>
  <variable name="C(1018,22)" index="1376465" value="1"/>
  <variable name="C(1018,23)" index="1376466" value="2"/>
  <variable name="C(1018,24)" index="1376467" value="3"/>
  <variable name="C(1055,50)" index="1376706" value="1"/>
  <variable name="C(1055,51)" index="1376707" value="2"/>
  <variable name="C(1055,6)" index="1376708" value="3"/>
  <variable name="C(1117,50)" index="1377027" value="1"/>
  <variable name="C(1117,19)" index="1377028" value="2"/>
  <variable name="C(1212,4)" index="1377511" value="1"/>
  <variable name="C(1241,24)" index="1377681" value="1"/>
  <variable name="C(1241,42)" index="1377682" value="2"/>
  <variable name="C(1287,17)" index="1377947" value="1"/>
  <variable name="C(1287,18)" index="1377948" value="2"/>
  <variable name="C(1287,43)" index="1377949" value="3"/>
  <variable name="C(1386,12)" index="1378418" value="1"/>
  <variable name="C(1480,30)" index="1378957" value="1"/>
  <variable name="C(1480,40)" index="1378958" value="2"/>
  <variable name="C(1480,38)" index="1378959" value="3"/>
  <variable name="C(1527,67)" index="1379203" value="1"/>
  <variable name="C(1527,69)" index="1379204" value="2"/>
  <variable name="C(1527,47)" index="1379205" value="3"/>
  <variable name="C(1541,10)" index="1379281" value="1"/>
  <variable name="C(1559,37)" index="1379390" value="1"/>
  <variable name="C(1559,36)" index="1379391" value="1.9999999999999998"/>
  <variable name="C(1584,68)" index="1379534" value="1"/>
  <variable name="C(1584,69)" index="1379535" value="2"/>
  <variable name="C(1584,70)" index="1379536" value="3"/>
  <variable name="C(1664,40)" index="1379916" value="1"/>
  <variable name="C(1664,30)" index="1379917" value="2"/>
  <variable name="C(1664,31)" index="1379918" value="3"/>
  <variable name="C(1670,38)" index="1379940" value="1"/>
  <variable name="C(1670,39)" index="1379941" value="2"/>
  <variable name="C(1720,67)" index="1380171" value="1"/>
  <variable name="C(1824,38)" index="1380682" value="1"/>
  <variable name="C(1824,37)" index="1380683" value="2"/>
  <variable name="C(1859,10)" index="1380871" value="1"/>
  <variable name="C(1859,27)" index="1380872" value="2"/>
  <variable name="C(1859,67)" index="1380873" value="3"/>
  <variable name="C(1859,4)" index="1380874" value="4"/>
  <variable name="C(1875,33)" index="1380937" value="1"/>
  <variable name="C(1875,35)" index="1380938" value="2"/>
  <variable name="C(1875,48)" index="1380939" value="3"/>
  <variable name="C(1989,12)" index="1381511" value="1"/>
  <variable name="C(1989,55)" index="1381512" value="2"/>
  <variable name="C(2000,4)" index="1381569" value="1"/>
  <variable name="C(2000,3)" index="1381570" value="2"/>
  <variable name="C(2000,66)" index="1381571" value="3"/>
  <variable name="C(2025,18)" index="1381682" value="1"/>
  <variable name="C(2095,9)" index="1382054" value="1"/>
  <variable name="C(2095,16)" index="1382055" value="2"/>
  <variable name="C(2095,32)" index="1382056" value="3"/>
  <variable name="C(2099,41)" index="1382076" value="1"/>
  <variable name="C(2099,18)" index="1382077" value="2"/>
  <variable name="C(2099,67)" index="1382078" value="3"/>
  <variable name="C(2099,36)" index="1382079" value="4"/>
  <variable name="C(2105,46)" index="1382109" value="1"/>
  <variable name="C(2105,43)" index="1382110" value="2"/>
  <variable name="C(2105,45)" index="1382111" value="3"/>
  <variable name="C(2176,67)" index="1382531" value="1"/>
  <variable name="C(2178,47)" index="1382537" value="1"/>
  <variable name="C(2178,69)" index="1382538" value="2"/>
  <variable name="C(2221,71)" index="1382763" value="1"/>
  <variable name="C(2221,72)" index="1382764" value="2"/>
  <variable name="C(2268,45)" index="1383011" value="1"/>
  <variable name="C(2268,43)" index="1383012" value="2"/>
  <variable name="C(2268,46)" index="1383013" value="3"/>
  <variable name="C(2284,63)" index="1383113" value="1"/>
  <variable name="C(2289,68)" index="1383137" value="1"/>
  <variable name="C(2301,52)" index="1383190" value="1"/>
  <variable name="C(2301,68)" index="1383191" value="2"/>
  <variable name="C(2301,9)" index="1383192" value="3"/>
  <variable name="C(2311,38)" index="1383241" value="1"/>
  <variable name="C(2329,14)" index="1383344" value="1"/>
  <variable name="C(2335,32)" index="1383378" value="1"/>
  <variable name="C(2335,16)" index="1383379" value="2"/>
  <variable name="C(2335,9)" index="1383380" value="3"/>
  <variable name="C(2335,30)" index="1383381" value="4"/>
  <variable name="C(2375,20)" index="1383620" value="1"/>
  <variable name="C(2436,50)" index="1383922" value="1"/>
  <variable name="C(2436,23)" index="1383923" value="2"/>
  <variable name="C(2495,48)" index="1384251" value="1"/>
  <variable name="C(2495,35)" index="1384252" value="2"/>
  <variable name="C(2501,67)" index="1384274" value="1"/>
  <variable name="C(2501,18)" index="1384275" value="2"/>
  <variable name="C(2501,41)" index="1384276" value="3"/>
  <variable name="C(2530,7)" index="1384404" value="1"/>
  <variable name="C(2530,8)" index="1384405" value="2"/>
  <variable name="C(2563,58)" index="1384593" value="1"/>
  <variable name="C(2563,57)" index="1384594" value="2"/>
  <variable name="C(2563,2)" index="1384595" value="3"/>
  <variable name="C(2563,4)" index="1384596" value="4"/>
  <variable name="C(2568,12)" index="1384622" value="1"/>
  <variable name="C(2568,11)" index="1384623" value="2"/>
  <variable name="C(2568,4)" index="1384624" value="3"/>
  <variable name="C(2568,1)" index="1384625" value="4"/>
  <variable name="C(2753,58)" index="1385661" value="1"/>
  <variable name="C(2760,59)" index="1385697" value="1"/>
  <variable name="C(2760,1)" index="1385698" value="2"/>
  <variable name="C(2760,74)" index="1385699" value="3"/>
  <variable name="C(2760,73)" index="1385700" value="4"/>
  <variable name="C(2777,61)" index="1385801" value="2"/>
  <variable name="C(2777,34)" index="1385802" value="3"/>
  <variable name="C(2777,30)" index="1385803" value="4"/>
  <variable name="C(2814,34)" index="1386024" value="1"/>
  <variable name="C(2854,38)" index="1386262" value="1"/>
  <variable name="C(2897,4)" index="1386501" value="1"/>
  <variable name="C(2897,2)" index="1386502" value="2"/>
  <variable name="C(2897,7)" index="1386503" value="3"/>
  <variable name="C(2897,53)" index="1386504" value="4"/>
  <variable name="C(2907,73)" index="1386548" value="1"/>
  <variable name="C(2907,74)" index="1386549" value="2"/>
  <variable name="C(2940,35)" index="1386677" value="1"/>
  <variable name="C(2940,33)" index="1386678" value="2"/>
  <variable name="C(2959,68)" index="1386742" value="1"/>
  <variable name="C(2959,52)" index="1386743" value="2"/>
  <variable name="C(2966,59)" index="1386778" value="1"/>
  <variable name="C(2993,27)" index="1386883" value="1"/>
  <variable name="C(2993,15)" index="1386884" value="2"/>
  <variable name="C(2993,13)" index="1386885" value="3"/>
  <variable name="C(3001,21)" index="1386921" value="1"/>
  <variable name="C(3007,2)" index="1386946" value="1"/>
  <variable name="C(3007,57)" index="1386947" value="2"/>
  <variable name="C(3007,12)" index="1386948" value="3"/>
  <variable name="C(3007,28)" index="1386949" value="4"/>
  <variable name="C(3156,73)" index="1387583" value="1"/>
  <variable name="C(3156,65)" index="1387584" value="2"/>
  <variable name="C(3156,66)" index="1387585" value="3"/>
  <variable name="C(3156,3)" index="1387586" value="4"/>
  <variable name="C(3158,1)" index="1387595" value="1"/>
  <variable name="C(3158,4)" index="1387596" value="2"/>
  <variable name="C(3158,11)" index="1387597" value="3"/>
  <variable name="C(3169,70)" index="1387667" value="1"/>
  <variable name="C(3169,69)" index="1387668" value="2"/>
  <variable name="C(3169,67)" index="1387669" value="3"/>
  <variable name="C(3169,27)" index="1387670" value="4"/>
 </variables>
</CPLEXSolution>
